
Gurobi 11.0.1 (mac64[arm]) logging started Fri May  3 23:55:02 2024

Set parameter LogFile to value "../models/model_moo(May 03,2355).log"
Gurobi Optimizer version 11.0.1 build v11.0.1rc0 (mac64[arm] - Darwin 23.2.0 23C71)

CPU model: Apple M2
Thread count: 8 physical cores, 8 logical processors, using up to 8 threads

Optimize a model with 1802 rows, 1412 columns and 4402 nonzeros
Model fingerprint: 0x01461781
Variable types: 1044 continuous, 368 integer (368 binary)
Coefficient statistics:
  Matrix range     [1e+00, 2e+25]
  Objective range  [9e-04, 2e+02]
  Bounds range     [1e+00, 1e+00]
  RHS range        [1e+00, 1e+12]
Warning: Model contains large matrix coefficient range
Warning: Model contains large rhs
         Consider reformulating model or setting NumericFocus parameter
         to avoid numerical issues.

---------------------------------------------------------------------------
Multi-objectives: starting optimization with 2 objectives ... 
---------------------------------------------------------------------------

Multi-objectives: applying initial presolve ...
---------------------------------------------------------------------------

Presolve removed 1311 rows and 696 columns
Presolve time: 0.00s
Presolved: 491 rows, 716 columns, 1457 nonzeros
---------------------------------------------------------------------------

Multi-objectives: optimize objective 1 (objective_re_1) ...
---------------------------------------------------------------------------

Found heuristic solution: objective 0.0000000
Presolve removed 80 rows and 367 columns
Presolve time: 0.00s
Presolved: 411 rows, 349 columns, 1007 nonzeros
Variable types: 0 continuous, 349 integer (349 binary)
Found heuristic solution: objective -722.2352638

Root relaxation: objective -1.093912e+03, 326 iterations, 0.00 seconds (0.00 work units)

    Nodes    |    Current Node    |     Objective Bounds      |     Work
 Expl Unexpl |  Obj  Depth IntInf | Incumbent    BestBd   Gap | It/Node Time

     0     0 -1093.9121    0  148 -722.23526 -1093.9121  51.5%     -    0s
H    0     0                    -806.1189476 -1093.9121  35.7%     -    0s
H    0     0                    -1037.051322 -1093.9121  5.48%     -    0s
H    0     0                    -1090.033628 -1093.9121  0.36%     -    0s

Cutting planes:
  Gomory: 1
  Zero half: 2

Explored 1 nodes (326 simplex iterations) in 0.02 seconds (0.01 work units)
Thread count was 8 (of 8 available processors)

Solution count 4: -1090.03 -1037.05 -806.119 -722.235 

Optimal solution found (tolerance 1.00e-04)
Best objective -1.090033627839e+03, best bound -1.090061025505e+03, gap 0.0025%
---------------------------------------------------------------------------

Multi-objectives: optimize objective 2 (objective_cost_2) ...
---------------------------------------------------------------------------


Loaded user MIP start with objective 775

Presolve removed 86 rows and 372 columns
Presolve time: 0.00s
Presolved: 406 rows, 344 columns, 1320 nonzeros
Found heuristic solution: objective -2840.420611
Variable types: 0 continuous, 344 integer (344 binary)

Root relaxation: objective -4.705390e+03, 484 iterations, 0.00 seconds (0.01 work units)

    Nodes    |    Current Node    |     Objective Bounds      |     Work
 Expl Unexpl |  Obj  Depth IntInf | Incumbent    BestBd   Gap | It/Node Time

     0     0 -4705.3900    0  161 -2840.4206 -4705.3900  65.7%     -    0s

Cutting planes:
  Gomory: 2
  Zero half: 3

Explored 1 nodes (484 simplex iterations) in 0.04 seconds (0.04 work units)
Thread count was 8 (of 8 available processors)

Solution count 1: -2840.42 
No other solutions better than -2840.42

Optimal solution found (tolerance 1.00e-04)
Best objective -2.840420611111e+03, best bound -2.840420611111e+03, gap 0.0000%

---------------------------------------------------------------------------
Multi-objectives: solved in 0.04 seconds (0.04 work units), solution count 5


Gurobi 11.0.1 (mac64[arm]) logging started Fri May  3 23:55:09 2024

Set parameter LogFile to value "../models/model_moo(May 03,2355).log"
Gurobi Optimizer version 11.0.1 build v11.0.1rc0 (mac64[arm] - Darwin 23.2.0 23C71)

CPU model: Apple M2
Thread count: 8 physical cores, 8 logical processors, using up to 8 threads

Optimize a model with 1882 rows, 1476 columns and 4684 nonzeros
Model fingerprint: 0xf651bf06
Variable types: 1092 continuous, 384 integer (384 binary)
Coefficient statistics:
  Matrix range     [1e+00, 2e+25]
  Objective range  [3e-02, 2e+02]
  Bounds range     [1e+00, 1e+00]
  RHS range        [1e+00, 1e+12]
Warning: Model contains large matrix coefficient range
Warning: Model contains large rhs
         Consider reformulating model or setting NumericFocus parameter
         to avoid numerical issues.

---------------------------------------------------------------------------
Multi-objectives: starting optimization with 2 objectives ... 
---------------------------------------------------------------------------

Multi-objectives: applying initial presolve ...
---------------------------------------------------------------------------

Presolve removed 1375 rows and 728 columns
Presolve time: 0.00s
Presolved: 507 rows, 748 columns, 1522 nonzeros
---------------------------------------------------------------------------

Multi-objectives: optimize objective 1 (objective_re_1) ...
---------------------------------------------------------------------------

Found heuristic solution: objective 0.0000000
Presolve removed 74 rows and 378 columns
Presolve time: 0.00s
Presolved: 433 rows, 370 columns, 1070 nonzeros
Variable types: 0 continuous, 370 integer (370 binary)
Found heuristic solution: objective -814.6011283

Root relaxation: objective -1.180516e+03, 349 iterations, 0.00 seconds (0.00 work units)

    Nodes    |    Current Node    |     Objective Bounds      |     Work
 Expl Unexpl |  Obj  Depth IntInf | Incumbent    BestBd   Gap | It/Node Time

*    0     0               0    -1180.515782 -1180.5158  0.00%     -    0s

Explored 1 nodes (349 simplex iterations) in 0.01 seconds (0.01 work units)
Thread count was 8 (of 8 available processors)

Solution count 2: -1180.52 -814.601 
No other solutions better than -1180.52

Optimal solution found (tolerance 1.00e-04)
Best objective -1.180515781909e+03, best bound -1.180515781909e+03, gap 0.0000%
---------------------------------------------------------------------------

Multi-objectives: optimize objective 2 (objective_cost_2) ...
---------------------------------------------------------------------------


Loaded user MIP start with objective 650

Presolve removed 80 rows and 383 columns
Presolve time: 0.00s
Presolved: 428 rows, 365 columns, 1404 nonzeros
Found heuristic solution: objective -5067.758472
Variable types: 0 continuous, 365 integer (365 binary)

Root relaxation: objective -5.801980e+03, 435 iterations, 0.00 seconds (0.00 work units)

    Nodes    |    Current Node    |     Objective Bounds      |     Work
 Expl Unexpl |  Obj  Depth IntInf | Incumbent    BestBd   Gap | It/Node Time

     0     0 -5801.9804    0   57 -5067.7585 -5801.9804  14.5%     -    0s
H    0     0                    -5801.370750 -5801.9804  0.01%     -    0s

Cutting planes:
  MIR: 1

Explored 1 nodes (435 simplex iterations) in 0.03 seconds (0.02 work units)
Thread count was 8 (of 8 available processors)

Solution count 2: -5801.37 -5067.76 
No other solutions better than -5801.37

Optimal solution found (tolerance 1.00e-04)
Best objective -5.801370750000e+03, best bound -5.801370750000e+03, gap 0.0000%

---------------------------------------------------------------------------
Multi-objectives: solved in 0.03 seconds (0.02 work units), solution count 4


Gurobi 11.0.1 (mac64[arm]) logging started Fri May  3 23:55:16 2024

Set parameter LogFile to value "../models/model_moo(May 03,2355).log"
Gurobi Optimizer version 11.0.1 build v11.0.1rc0 (mac64[arm] - Darwin 23.2.0 23C71)

CPU model: Apple M2
Thread count: 8 physical cores, 8 logical processors, using up to 8 threads

Optimize a model with 1912 rows, 1500 columns and 4784 nonzeros
Model fingerprint: 0x02adf813
Variable types: 1110 continuous, 390 integer (390 binary)
Coefficient statistics:
  Matrix range     [1e+00, 2e+25]
  Objective range  [3e-02, 2e+02]
  Bounds range     [1e+00, 1e+00]
  RHS range        [1e+00, 1e+12]
Warning: Model contains large matrix coefficient range
Warning: Model contains large rhs
         Consider reformulating model or setting NumericFocus parameter
         to avoid numerical issues.

---------------------------------------------------------------------------
Multi-objectives: starting optimization with 2 objectives ... 
---------------------------------------------------------------------------

Multi-objectives: applying initial presolve ...
---------------------------------------------------------------------------

Presolve removed 1398 rows and 740 columns
Presolve time: 0.00s
Presolved: 514 rows, 760 columns, 1545 nonzeros
---------------------------------------------------------------------------

Multi-objectives: optimize objective 1 (objective_re_1) ...
---------------------------------------------------------------------------

Found heuristic solution: objective 0.0000000
Presolve removed 75 rows and 385 columns
Presolve time: 0.00s
Presolved: 439 rows, 375 columns, 1085 nonzeros
Variable types: 0 continuous, 375 integer (375 binary)
Found heuristic solution: objective -360.6629521

Root relaxation: objective -1.140839e+03, 316 iterations, 0.00 seconds (0.00 work units)

    Nodes    |    Current Node    |     Objective Bounds      |     Work
 Expl Unexpl |  Obj  Depth IntInf | Incumbent    BestBd   Gap | It/Node Time

*    0     0               0    -1140.839453 -1140.8395  0.00%     -    0s

Explored 1 nodes (316 simplex iterations) in 0.01 seconds (0.01 work units)
Thread count was 8 (of 8 available processors)

Solution count 2: -1140.84 -360.663 
No other solutions better than -1140.84

Optimal solution found (tolerance 1.00e-04)
Best objective -1.140839453398e+03, best bound -1.140839453398e+03, gap 0.0000%
---------------------------------------------------------------------------

Multi-objectives: optimize objective 2 (objective_cost_2) ...
---------------------------------------------------------------------------


Loaded user MIP start with objective 550

Presolve removed 81 rows and 390 columns
Presolve time: 0.00s
Presolved: 434 rows, 370 columns, 1424 nonzeros
Found heuristic solution: objective -4902.530444
Variable types: 0 continuous, 370 integer (370 binary)

Root relaxation: objective -4.912691e+03, 549 iterations, 0.00 seconds (0.01 work units)

    Nodes    |    Current Node    |     Objective Bounds      |     Work
 Expl Unexpl |  Obj  Depth IntInf | Incumbent    BestBd   Gap | It/Node Time

     0     0 infeasible    0      -4902.5304 -4902.5304  0.00%     -    0s

Explored 1 nodes (549 simplex iterations) in 0.03 seconds (0.02 work units)
Thread count was 8 (of 8 available processors)

Solution count 1: -4902.53 
No other solutions better than -4902.53

Optimal solution found (tolerance 1.00e-04)
Best objective -4.902530444444e+03, best bound -4.902530444444e+03, gap 0.0000%

---------------------------------------------------------------------------
Multi-objectives: solved in 0.03 seconds (0.02 work units), solution count 3

